Solver command line: ['/usr/local/bin/gurobi.sh']

Set parameter WLSAccessID
Set parameter WLSSecret
Set parameter LicenseID to value 2606900
Academic license 2606900 - for non-commercial use only - registered to so___@htwk-leipzig.de
Read LP format model from file /var/folders/jf/5sh4zzv94dxbcz8g7tg2jq5h0000gn/T/tmp4khp9gc9.pyomo.lp
Reading time = 3.74 seconds
objective: 939890 rows, 878399 columns, 2090576 nonzeros
Set parameter TimeLimit to value 5000
Set parameter MIPGap to value 0.08
Gurobi Optimizer version 12.0.1 build v12.0.1rc0 (mac64[rosetta2] - Darwin 24.3.0 24D70)

CPU model: Apple M3
Thread count: 8 physical cores, 8 logical processors, using up to 8 threads

Non-default parameters:
TimeLimit  5000
MIPGap  0.08

Academic license 2606900 - for non-commercial use only - registered to so___@htwk-leipzig.de
Optimize a model with 939890 rows, 878399 columns and 2090576 nonzeros
Model fingerprint: 0x44d193bb
Model has 8783 quadratic constraints
Variable types: 755424 continuous, 122975 integer (105408 binary)
Coefficient statistics:
  Matrix range     [6e-03, 1e+03]
  QMatrix range    [1e+00, 1e+00]
  Objective range  [1e-02, 4e+02]
  Bounds range     [1e+00, 3e+00]
  RHS range        [8e-05, 1e+04]
Presolve removed 773016 rows and 676389 columns
Presolve time: 0.81s
Presolved: 166874 rows, 202010 columns, 553336 nonzeros
Variable types: 131741 continuous, 70269 integer (61485 binary)
Performing another presolve...
Presolve removed 70271 rows and 70271 columns (presolve time = 8s)...
Presolve removed 70271 rows and 70271 columns
Presolve time: 8.45s
Deterministic concurrent LP optimizer: primal and dual simplex
Showing primal log only...


Root simplex log...

Iteration    Objective       Primal Inf.    Dual Inf.      Time
       0   -3.2278522e+05   1.229809e+08   8.557073e+13     11s
Concurrent spin time: 12.28s (can be avoided by choosing Method=3)

Solved with dual simplex

Root simplex log...

Iteration    Objective       Primal Inf.    Dual Inf.      Time
   68196   -3.0474351e+07   0.000000e+00   0.000000e+00     25s

Root relaxation: objective -3.047435e+07, 68196 iterations, 14.29 seconds (1.81 work units)
Total elapsed time = 24.62s (DegenMoves)
Total elapsed time = 25.02s (DegenMoves)

    Nodes    |    Current Node    |     Objective Bounds      |     Work
 Expl Unexpl |  Obj  Depth IntInf | Incumbent    BestBd   Gap | It/Node Time

     0     0 -3.047e+07    0  386          - -3.047e+07      -     -   27s
     0     0 -3.047e+07    0  491          - -3.047e+07      -     -   59s
     0     0 -3.047e+07    0  479          - -3.047e+07      -     -   61s
     0     0 -3.047e+07    0  479          - -3.047e+07      -     -   61s
     0     0 -3.047e+07    0  465          - -3.047e+07      -     -   62s
     0     0 -3.047e+07    0  473          - -3.047e+07      -     -   63s
     0     0 -3.047e+07    0  475          - -3.047e+07      -     -   63s
     0     0 -3.047e+07    0  481          - -3.047e+07      -     -   65s
     0     0 -3.047e+07    0  488          - -3.047e+07      -     -   66s
     0     0 -3.047e+07    0  500          - -3.047e+07      -     -   66s
     0     0 -3.047e+07    0  503          - -3.047e+07      -     -   67s
     0     0 -3.047e+07    0  515          - -3.047e+07      -     -   68s
     0     0 -3.047e+07    0  519          - -3.047e+07      -     -   68s
     0     0 -3.047e+07    0  506          - -3.047e+07      -     -   69s
     0     0 -3.047e+07    0  511          - -3.047e+07      -     -   70s
     0     0 -3.047e+07    0  520          - -3.047e+07      -     -   70s
     0     0 -3.047e+07    0  520          - -3.047e+07      -     -   71s
     0     0 -3.047e+07    0  525          - -3.047e+07      -     -   72s
     0     0 -3.047e+07    0  521          - -3.047e+07      -     -   73s
     0     0 -3.047e+07    0  433          - -3.047e+07      -     -   75s
     0     2 -3.047e+07    0  421          - -3.047e+07      -     -   88s
    23    66 -3.047e+07    5  487          - -3.047e+07      -   138   91s
   172   428 -3.047e+07   16  485          - -3.047e+07      -  25.9   98s
   427   922 -3.047e+07   37  468          - -3.047e+07      -  15.0  108s
   921  2015 -3.047e+07   80  455          - -3.047e+07      -  11.6  118s
  2014  2495 -3.046e+07  206  451          - -3.047e+07      -   8.3  124s
  2494  3167 -3.046e+07  236  443          - -3.047e+07      -   8.4  131s
  3166  4030 -3.046e+07  300  433          - -3.047e+07      -   7.5  137s
  4029  4410 -3.046e+07  427  433          - -3.047e+07      -   6.8  142s
  4409  4787 -3.046e+07  471  421          - -3.047e+07      -   6.9  146s
  4786  5163 -3.046e+07  498  418          - -3.047e+07      -   7.0  150s
  5162  5490 -3.046e+07  538  400          - -3.047e+07      -   7.1  155s
  5489  5845 -3.046e+07  555  399          - -3.047e+07      -   7.1  160s
  6319  6729 -3.046e+07  646  394          - -3.047e+07      -   6.9  169s
  6728  7210 -3.046e+07  694  369          - -3.047e+07      -   6.9  174s
  7209  7718 -3.046e+07  744  356          - -3.047e+07      -   6.8  180s
  7720  7720 -3.046e+07  134  371          - -3.047e+07      -   6.7  228s
  7721  7721 -3.046e+07  424  498          - -3.047e+07      -   6.7  231s
  7726  7724 -3.047e+07  124  511          - -3.047e+07      -   6.7  235s
  7731  7728 -3.046e+07  404  487          - -3.047e+07      -   6.7  240s
  7736  7731 -3.046e+07  792  487          - -3.047e+07      -   6.7  245s
  7743  7736 -3.046e+07  246  528          - -3.047e+07      -   6.7  252s
  7746  7738 -3.046e+07  655  521          - -3.047e+07      -   6.7  257s
  7749  7740 -3.046e+07  519  541          - -3.047e+07      -   6.7  264s
  7750  7740 -3.046e+07  777  531          - -3.047e+07      -   6.7  265s
  7751  7741 -3.046e+07  673  533          - -3.047e+07      -   6.7  270s
  7759  7748 -3.046e+07  700 13175          - -3.047e+07      -  17.4  275s
  7760  7748 -3.046e+07  200  393          - -3.047e+07      -  17.4  322s
  7761  7749 -3.046e+07  729  505          - -3.047e+07      -  17.4  325s
  7769  7754 -3.046e+07  427  535          - -3.047e+07      -  17.4  330s
  7773  7757 -3.046e+07  718  538          - -3.047e+07      -  17.4  336s
  7776  7759 -3.046e+07  260  562          - -3.047e+07      -  17.4  341s
  7779  7761 -3.046e+07  765  556          - -3.047e+07      -  17.4  345s
  7782  7763 -3.046e+07  646  542          - -3.047e+07      -  17.4  350s
  7786  7766 -3.046e+07  682  462          - -3.047e+07      -  17.4  359s
  7787  7766 -3.046e+07  211  462          - -3.047e+07      -  17.4  371s
H 7790  7384                    -2.74944e+07 -3.047e+07  10.8%  38.2  375s
H 7791  7014                    -2.79566e+07 -3.047e+07  8.98%  38.2  375s
H 7794  6670                    -2.79572e+07 -3.047e+07  8.97%  38.2  378s
H 7795  6337                    -2.79575e+07 -3.047e+07  8.97%  38.2  378s
H 7800  6018                    -2.79580e+07 -3.047e+07  8.97%  38.2  378s
  7810  6095 -3.047e+07   33  477 -2.796e+07 -3.047e+07  8.97%  38.5  384s
  7882  6172 -3.047e+07   38  467 -2.796e+07 -3.047e+07  8.97%  38.4  393s
  7983  6325 -3.047e+07   44  461 -2.796e+07 -3.047e+07  8.97%  38.1  409s
H 7997  6020                    -2.79862e+07 -3.047e+07  8.86%  38.1  409s
H 8097  5701                    -2.90871e+07 -3.047e+07  4.74%  38.0  409s

Cutting planes:
  Learned: 5
  Gomory: 319
  Cover: 223
  Implied bound: 108
  Projected implied bound: 75
  Clique: 4
  MIR: 524
  Mixing: 6
  StrongCG: 1
  Flow cover: 279
  RLT: 14
  Relax-and-lift: 60

Explored 8170 nodes (309307 simplex iterations) in 409.55 seconds (194.88 work units)
Thread count was 8 (of 8 available processors)

Solution count 5: -2.90871e+07 -2.79862e+07 -2.7958e+07 ... -2.74944e+07

Optimal solution found (tolerance 8.00e-02)
Best objective -2.908712828330e+07, best bound -3.046618495029e+07, gap 4.7411%

